Route #1: 2 48 49 50 12 23 45 4 
Route #2: 18 30 1 36 25 7 43 
Route #3: 42 3 31 24 39 14 21 
Route #4: 27 8 5 51 13 46 
Route #5: 41 6 44 10 29 37 47 
Route #6: 26 22 17 15 19 32 34 38 33 35 
Route #7: 9 16 11 28 20 40 
cost 1053.28
